p cnf 40 51
4 8 -21 12 -9 0
8 34 0
33 26 36 -26 0
-8 17 -35 22 0
-24 0
-7 -2 0
-7 15 0
-7 0
-12 36 37 -33 0
16 -18 38 31 0
-24 40 0
-7 -12 -25 0
34 39 -18 19 21 0
20 0
5 0
-38 -20 -33 0
3 0
-40 0
23 0
-24 -11 0
1 0
7 0
-40 -22 29 -2 0
-4 0
25 0
32 -14 40 -3 0
24 4 30 0
9 -30 -21 -1 0
-8 0
2 11 20 -5 0
19 -2 -10 27 -34 0
-30 -37 -4 0
-10 -9 0
-8 -14 -20 0
-27 37 -25 24 -34 0
32 28 -19 0
-11 0
16 32 -20 4 0
34 -28 -27 -26 0
-16 24 7 0
-38 4 0
6 0
12 0
-35 0
28 0
25 0
-39 15 0
-28 0
25 -13 36 9 0
-15 21 0
24 -4 -19 0
